c read Graph
c width = 163
c time = 97 ms
c width = 15
c time = 182 ms
c width = 14
c time = 269 ms
c width = 13
c time = 399 ms
c width = 12
c time = 1115 ms
c width = 12
c time = 4990 ms
s td 160 13 176
b 1 1 2 17
b 2 2 3 17 18
b 3 14 15 31 32
b 4 3 17 18 33
b 5 14 31 32 48
b 6 129 145 146 162
b 7 144 159 160 175
b 8 129 146 162 163
b 9 144 159 174 175
b 10 3 4 5 20
b 11 3 5 19 20 34 49
b 12 5 19 20 34 36 49 51
b 13 5 20 34 36 49 51 66
b 14 5 20 36 49 51 66 81
b 15 5 20 22 36 37 51 66 81
b 16 5 22 36 37 51 53 66 68 81
b 17 36 51 52 53 68
b 18 5 22 37 51 53 66 68 81 83
b 19 5 22 37 53 66 68 81 83 98
b 20 66 81 82 83 98
b 21 5 22 37 53 68 81 83 98 100 117 134 149 166
b 22 81 83 98 100 117 132 134 149 166
b 23 117 132 133 134 149
b 24 81 83 98 100 115 117 132 149 166
b 25 81 98 115 132 149 164 166
b 26 149 164 165 166
b 27 81 98 113 115 132 149 164
b 28 81 97 98 113
b 29 98 113 115 132 147 149 164
b 30 98 113 115 130 132 147 164
b 31 113 130 147 163 164
b 32 113 129 130 147 163
b 33 129 130 146 147 163
b 34 115 130 131 132 147
b 35 98 113 114 115 130
b 36 132 147 148 149 164
b 37 83 98 99 100 115
b 38 100 115 116 117 132
b 39 5 22 37 53 68 83 85 100 117 134 149 166
b 40 68 83 84 85 100
b 41 5 22 37 53 68 85 100 102 117 134 149 166
b 42 85 100 101 102 117
b 43 5 22 37 53 68 70 85 102 117 134 149 166
b 44 5 22 37 53 70 85 87 102 117 134 149 166
b 45 70 85 86 87 102
b 46 5 22 37 53 54 70 87 102 117 134 149 166
b 47 5 22 37 54 70 71 87 102 117 134 149 166
b 48 5 22 37 39 54 71 87 102 117 134 149 166
b 49 5 22 39 54 71 87 102 117 119 134 149 166
b 50 102 117 118 119 134
b 51 5 22 39 54 71 87 102 104 119 134 149 166
b 52 87 102 103 104 119
b 53 5 22 39 54 71 87 104 119 134 149 151 166
b 54 5 22 39 54 71 87 104 119 134 136 151 166
b 55 5 22 39 54 56 71 87 104 119 136 151 166
b 56 5 22 39 56 71 87 104 119 121 136 151 166
b 57 5 22 39 56 71 87 88 104 121 136 151 166
b 58 5 22 39 56 71 73 88 104 121 136 151 166
b 59 5 22 39 56 73 88 104 105 121 136 151 166
b 60 5 9 22 24 39 56 73 88 105 121 136 151 166
b 61 9 24 39 56 73 88 105 121 136 151 153 166 170
b 62 9 24 39 56 73 88 90 105 121 136 153 170
b 63 9 24 39 41 56 73 90 105 121 136 153 170
b 64 9 24 41 56 58 73 90 105 121 136 153 170
b 65 41 56 57 58 73
b 66 9 24 26 41 58 73 90 105 121 136 153 170
b 67 9 26 41 58 73 90 105 121 136 138 153 170
b 68 9 26 41 58 73 90 105 121 122 138 153 170
b 69 9 26 41 58 73 90 105 107 122 138 153 170
b 70 90 105 106 107 122
b 71 9 26 41 58 73 75 90 107 122 138 153 170
b 72 58 73 74 75 90
b 73 9 26 41 43 58 75 90 107 122 138 153 170
b 74 26 41 42 43 58
b 75 9 26 43 58 75 90 92 107 122 138 153 170
b 76 75 90 91 92 107
b 77 9 26 43 58 60 75 92 107 122 138 153 170
b 78 43 58 59 60 75
b 79 121 136 137 138 153
b 80 9 24 25 26 41
b 81 24 39 40 41 56
b 82 73 88 89 90 105
b 83 136 151 153 166 168 170
b 84 153 168 169 170
b 85 151 166 167 168
b 86 136 151 152 153 168
b 87 5 7 9 22 24 39
b 88 5 6 7 22
b 89 7 8 9 24
b 90 7 22 23 24 39
b 91 56 71 72 73 88
b 92 104 119 120 121 136
b 93 39 54 55 56 71
b 94 119 134 135 136 151
b 95 134 149 150 151 166
b 96 22 37 38 39 54
b 97 53 68 69 70 85
b 98 51 66 67 68 83
b 99 5 20 21 22 37
b 100 49 65 66 81
b 101 34 49 50 51 66
b 102 19 34 35 36 51
b 103 3 19 33 34 49
b 104 3 18 19 33 34
b 105 9 11 13 26 28 43
b 106 77 92 93 94 109
b 107 92 107 108 109 124
b 108 94 96 109 111 124 139 155 156 172
b 109 94 96 109 111 124 139 155 170 172
b 110 9 26 43 60 75 77 92 107 122 138 153 170
b 111 9 13 26 28 43 60 77 94 96 111
b 112 9 26 43 60 77 92 107 122 138 153 155 170
b 113 9 26 43 60 77 92 107 122 138 139 155 170
b 114 9 26 43 60 77 92 107 122 124 139 155 170
b 115 9 26 43 60 77 94 96 109 111 124 139 155 170
b 116 9 26 43 60 77 92 107 109 124 139 155 170
b 117 9 26 43 60 77 92 94 109 124 139 155 170
b 118 9 26 43 60 77 94 109 111 124 139 155 170
b 119 11 12 13 28
b 120 107 122 123 124 139
b 121 60 75 76 77 92
b 122 13 28 43 60 77 79 94 96 111
b 123 79 94 95 96 111
b 124 13 28 43 60 62 77 79 94 96
b 125 62 77 78 79 94
b 126 13 28 43 45 60 62 77 79 96
b 127 28 43 44 45 60
b 128 45 60 61 62 77
b 129 13 28 45 62 64 79 96
b 130 64 79 80 96
b 131 13 28 45 47 62 64 79
b 132 13 28 30 45 47 62 64
b 133 13 28 29 30 45
b 134 30 45 46 47 62
b 135 13 30 47 48 64
b 136 13 14 30 47 48
b 137 14 30 31 47 48
b 138 47 62 63 64 79
b 139 11 26 27 28 43
b 140 9 10 11 26
b 141 155 170 171 172
b 142 138 153 154 155 170
b 143 94 96 109 111 124 139 141 156 172
b 144 94 96 109 111 124 126 141 156 172
b 145 94 109 110 111 126
b 146 109 124 125 126 141
b 147 96 111 126 141 156 158 172 174
b 148 141 156 157 158 172 174
b 149 157 172 173 174
b 150 96 111 126 128 141 158 174
b 151 96 111 112 128
b 152 111 126 128 141 143 158 174
b 153 128 143 144 158 174
b 154 143 144 158 159 174
b 155 111 126 127 128 143
b 156 126 141 142 143 158
b 157 124 139 140 141 156
b 158 160 175 176
b 159 145 161 162
b 160 15 16 32
1 2
2 4
3 160
3 5
4 104
5 137
6 159
6 8
7 158
7 9
8 33
9 154
10 11
11 103
11 12
12 102
12 13
13 101
13 14
14 100
14 15
15 99
15 16
16 18
16 17
18 98
18 19
19 21
19 20
21 39
21 22
22 24
22 23
24 38
24 25
24 37
25 26
25 27
27 28
27 29
29 36
29 30
30 31
30 35
30 34
31 32
32 33
39 41
39 40
41 43
41 42
43 97
43 44
44 46
44 45
46 47
47 48
48 96
48 49
49 51
49 50
51 53
51 52
53 95
53 54
54 94
54 55
55 93
55 56
56 92
56 57
57 58
58 91
58 59
59 60
60 87
60 61
61 83
61 62
62 82
62 63
63 81
63 64
64 65
64 66
66 80
66 67
67 79
67 68
68 69
69 70
69 71
71 73
71 72
73 75
73 74
75 77
75 76
77 110
77 78
83 86
83 85
83 84
87 88
87 89
87 90
103 104
105 139
105 140
105 119
105 111
106 117
107 116
108 143
108 109
109 141
109 115
110 121
110 112
111 122
111 115
112 142
112 113
113 114
114 120
114 116
115 118
116 117
117 118
122 124
122 123
124 126
124 125
126 127
126 128
126 129
129 130
129 131
131 138
131 132
132 135
132 133
132 134
135 136
136 137
143 157
143 144
144 145
144 146
144 147
147 148
147 150
148 149
150 151
150 152
152 153
152 155
152 156
153 154
